p tw 176 39601 2 
1 3 
1 4 
1 5 
1 6 
1 7 
1 8 
1 9 
1 10 
1 11 
1 12 
1 13 
1 14 
1 15 
1 16 
1 17 
1 18 
1 19 
1 20 
1 21 
1 22 
1 23 
1 24 
1 25 
1 26 
1 27 
1 28 
1 29 
1 30 
1 31 
1 37 
1 57 
1 70 
1 81 
1 91 
1 100 
1 111 
1 120 
1 130 
1 141 
1 144 
1 154 
1 162 
1 173 
1 175 
2 3 
2 4 
2 5 
2 6 
2 7 
2 8 
2 9 
2 10 
2 11 
2 12 
2 13 
2 14 
2 15 
2 16 
2 17 
2 29 
2 32 
2 33 
2 34 
2 35 
2 36 
2 37 
2 38 
2 39 
2 40 
2 41 
2 42 
2 43 
2 44 
2 45 
2 46 
2 74 
2 87 
2 101 
2 108 
2 123 
2 129 
2 139 
2 144 
2 150 
2 153 
2 156 
2 157 
2 158 
3 4 
3 5 
3 6 
3 7 
3 8 
3 9 
3 10 
3 11 
3 12 
3 13 
3 14 
3 15 
3 16 
3 18 
3 22 
3 32 
3 35 
3 46 
3 47 
3 48 
3 49 
3 50 
3 51 
3 52 
3 53 
3 54 
3 55 
3 56 
3 57 
3 58 
3 60 
3 72 
3 82 
3 94 
3 95 
3 96 
3 97 
3 98 
3 99 
3 100 
3 101 
3 102 
3 103 
4 5 
4 6 
4 7 
4 8 
4 9 
4 10 
4 11 
4 12 
4 13 
4 14 
4 15 
4 16 
4 19 
4 21 
4 32 
4 33 
4 46 
4 59 
4 60 
4 61 
4 62 
4 63 
4 64 
4 65 
4 66 
4 67 
4 68 
4 69 
4 70 
4 71 
4 82 
4 83 
4 84 
4 85 
4 86 
4 87 
4 88 
4 89 
4 90 
4 91 
4 92 
4 93 
5 6 
5 7 
5 8 
5 9 
5 10 
5 11 
5 12 
5 13 
5 14 
5 15 
5 16 
5 20 
5 28 
5 34 
5 42 
5 47 
5 54 
5 59 
5 66 
5 71 
5 72 
5 73 
5 74 
5 75 
5 76 
5 77 
5 78 
5 79 
5 80 
5 81 
5 89 
5 94 
5 114 
5 122 
5 128 
5 138 
5 143 
5 149 
5 153 
5 154 
5 155 
6 7 
6 8 
6 9 
6 10 
6 11 
6 12 
6 13 
6 14 
6 15 
6 16 
6 23 
6 24 
6 36 
6 38 
6 48 
6 55 
6 61 
6 64 
6 73 
6 76 
6 83 
6 92 
6 94 
6 103 
6 104 
6 105 
6 106 
6 107 
6 108 
6 109 
6 110 
6 111 
6 125 
6 147 
6 151 
6 153 
6 165 
6 169 
6 173 
6 174 
7 8 
7 9 
7 10 
7 11 
7 12 
7 13 
7 14 
7 15 
7 16 
7 22 
7 24 
7 37 
7 43 
7 49 
7 50 
7 62 
7 68 
7 74 
7 79 
7 84 
7 86 
7 95 
7 104 
7 110 
7 112 
7 113 
7 114 
7 115 
7 116 
7 117 
7 118 
7 133 
7 140 
7 150 
7 154 
7 160 
7 167 
7 168 
7 169 
8 9 
8 10 
8 11 
8 12 
8 13 
8 14 
8 15 
8 16 
8 19 
8 25 
8 34 
8 41 
8 50 
8 53 
8 63 
8 77 
8 83 
8 85 
8 96 
8 100 
8 105 
8 112 
8 116 
8 119 
8 120 
8 121 
8 122 
8 123 
8 124 
8 125 
8 127 
8 134 
8 137 
8 142 
8 149 
8 150 
8 151 
8 152 
9 10 
9 11 
9 12 
9 13 
9 14 
9 15 
9 16 
9 26 
9 29 
9 38 
9 44 
9 51 
9 58 
9 59 
9 66 
9 73 
9 86 
9 88 
9 96 
9 97 
9 106 
9 113 
9 118 
9 119 
9 126 
9 127 
9 128 
9 129 
9 130 
9 131 
9 134 
9 145 
9 163 
9 168 
9 170 
9 173 
9 176 
10 11 
10 12 
10 13 
10 14 
10 15 
10 16 
10 27 
10 30 
10 39 
10 42 
10 49 
10 51 
10 60 
10 64 
10 71 
10 75 
10 87 
10 98 
10 106 
10 107 
10 114 
10 120 
10 124 
10 132 
10 133 
10 134 
10 135 
10 136 
10 137 
10 148 
10 157 
10 160 
10 162 
10 170 
10 172 
10 174 
11 12 
11 13 
11 14 
11 15 
11 16 
11 23 
11 31 
11 40 
11 45 
11 52 
11 58 
11 65 
11 67 
11 76 
11 80 
11 84 
11 88 
11 98 
11 99 
11 110 
11 115 
11 119 
11 125 
11 126 
11 132 
11 137 
11 138 
11 139 
11 140 
11 141 
11 149 
11 156 
11 166 
11 172 
11 175 
12 13 
12 14 
12 15 
12 16 
12 17 
12 25 
12 41 
12 47 
12 54 
12 61 
12 69 
12 75 
12 82 
12 93 
12 103 
12 104 
12 115 
12 121 
12 126 
12 129 
12 133 
12 141 
12 142 
12 143 
12 144 
12 145 
12 146 
12 147 
12 148 
12 159 
12 164 
12 168 
12 171 
12 172 
13 14 
13 15 
13 16 
13 21 
13 28 
13 39 
13 40 
13 48 
13 52 
13 62 
13 68 
13 77 
13 78 
13 91 
13 101 
13 102 
13 109 
13 118 
13 122 
13 124 
13 130 
13 131 
13 135 
13 145 
13 146 
13 151 
13 156 
13 159 
13 160 
13 161 
13 164 
13 165 
13 166 
14 15 
14 16 
14 26 
14 31 
14 36 
14 43 
14 55 
14 56 
14 65 
14 67 
14 72 
14 81 
14 90 
14 93 
14 102 
14 107 
14 116 
14 117 
14 121 
14 123 
14 131 
14 136 
14 138 
14 146 
14 152 
14 155 
14 157 
14 159 
14 162 
14 163 
14 169 
14 176 
15 16 
15 18 
15 27 
15 33 
15 44 
15 56 
15 63 
15 79 
15 80 
15 90 
15 92 
15 97 
15 99 
15 109 
15 111 
15 112 
15 113 
15 135 
15 139 
15 142 
15 143 
15 152 
15 155 
15 158 
15 161 
15 164 
15 167 
15 170 
15 171 
15 174 
15 175 
16 20 
16 30 
16 35 
16 45 
16 53 
16 57 
16 69 
16 70 
16 78 
16 85 
16 89 
16 95 
16 105 
16 108 
16 117 
16 127 
16 128 
16 132 
16 136 
16 140 
16 147 
16 148 
16 158 
16 161 
16 163 
16 165 
16 166 
16 167 
16 171 
16 176 
17 18 
17 19 
17 20 
17 21 
17 22 
17 23 
17 24 
17 25 
17 26 
17 27 
17 28 
17 29 
17 30 
17 31 
17 32 
17 33 
17 34 
17 35 
17 36 
17 37 
17 38 
17 39 
17 40 
17 41 
17 42 
17 43 
17 44 
17 45 
17 47 
17 61 
17 82 
17 115 
17 121 
17 126 
17 133 
17 142 
17 143 
17 144 
17 145 
17 146 
17 147 
17 148 
18 19 
18 20 
18 21 
18 22 
18 23 
18 24 
18 25 
18 26 
18 27 
18 28 
18 29 
18 30 
18 31 
18 32 
18 44 
18 46 
18 47 
18 48 
18 49 
18 50 
18 51 
18 52 
18 53 
18 54 
18 55 
18 56 
18 57 
18 58 
18 63 
18 79 
18 90 
18 99 
18 109 
18 113 
18 135 
18 142 
18 155 
18 158 
18 171 
18 174 
18 175 
19 20 
19 21 
19 22 
19 23 
19 24 
19 25 
19 26 
19 27 
19 28 
19 29 
19 30 
19 31 
19 33 
19 41 
19 46 
19 53 
19 59 
19 60 
19 61 
19 62 
19 63 
19 64 
19 65 
19 66 
19 67 
19 68 
19 69 
19 70 
19 77 
19 83 
19 100 
19 116 
19 127 
19 134 
19 137 
19 142 
19 149 
19 150 
19 151 
19 152 
20 21 
20 22 
20 23 
20 24 
20 25 
20 26 
20 27 
20 28 
20 29 
20 30 
20 31 
20 34 
20 45 
20 47 
20 57 
20 59 
20 69 
20 71 
20 72 
20 73 
20 74 
20 75 
20 76 
20 77 
20 78 
20 79 
20 80 
20 81 
20 89 
20 95 
20 105 
20 127 
20 136 
20 140 
20 148 
20 158 
20 161 
20 163 
20 165 
21 22 
21 23 
21 24 
21 25 
21 26 
21 27 
21 28 
21 29 
21 30 
21 31 
21 32 
21 40 
21 48 
21 62 
21 71 
21 78 
21 82 
21 83 
21 84 
21 85 
21 86 
21 87 
21 88 
21 89 
21 90 
21 91 
21 92 
21 93 
21 102 
21 122 
21 130 
21 135 
21 145 
21 151 
21 156 
21 159 
21 160 
21 161 
22 23 
22 24 
22 25 
22 26 
22 27 
22 28 
22 29 
22 30 
22 31 
22 35 
22 43 
22 50 
22 60 
22 68 
22 72 
22 79 
22 82 
22 86 
22 94 
22 95 
22 96 
22 97 
22 98 
22 99 
22 100 
22 101 
22 102 
22 103 
22 110 
22 133 
22 140 
22 150 
22 154 
22 160 
22 167 
22 168 
22 169 
23 24 
23 25 
23 26 
23 27 
23 28 
23 29 
23 30 
23 31 
23 36 
23 40 
23 48 
23 52 
23 61 
23 65 
23 73 
23 76 
23 83 
23 88 
23 94 
23 99 
23 104 
23 105 
23 106 
23 107 
23 108 
23 109 
23 110 
23 111 
23 115 
23 119 
23 132 
23 137 
23 138 
23 139 
23 140 
23 141 
24 25 
24 26 
24 27 
24 28 
24 29 
24 30 
24 31 
24 37 
24 38 
24 49 
24 55 
24 62 
24 64 
24 74 
24 76 
24 84 
24 92 
24 95 
24 103 
24 104 
24 112 
24 113 
24 114 
24 115 
24 116 
24 117 
24 118 
24 125 
24 147 
24 151 
24 153 
24 165 
24 169 
24 173 
24 174 
25 26 
25 27 
25 28 
25 29 
25 30 
25 31 
25 34 
25 41 
25 50 
25 54 
25 63 
25 69 
25 75 
25 85 
25 93 
25 96 
25 103 
25 104 
25 105 
25 112 
25 119 
25 120 
25 121 
25 122 
25 123 
25 124 
25 125 
25 129 
25 141 
25 159 
25 164 
25 168 
25 171 
25 172 
26 27 
26 28 
26 29 
26 30 
26 31 
26 38 
26 43 
26 51 
26 55 
26 59 
26 67 
26 72 
26 86 
26 90 
26 97 
26 106 
26 107 
26 113 
26 117 
26 119 
26 123 
26 126 
26 127 
26 128 
26 129 
26 130 
26 131 
26 138 
26 146 
26 152 
26 159 
26 162 
26 163 
27 28 
27 29 
27 30 
27 31 
27 33 
27 39 
27 51 
27 56 
27 64 
27 75 
27 80 
27 87 
27 92 
27 97 
27 98 
27 107 
27 111 
27 112 
27 114 
27 120 
27 132 
27 133 
27 134 
27 135 
27 136 
27 139 
27 143 
27 152 
27 161 
27 164 
27 167 
27 170 
28 29 
28 30 
28 31 
28 39 
28 42 
28 52 
28 54 
28 66 
28 68 
28 77 
28 89 
28 91 
28 94 
28 101 
28 109 
28 114 
28 118 
28 122 
28 124 
28 128 
28 131 
28 138 
28 143 
28 146 
28 149 
28 153 
28 154 
28 155 
28 164 
28 165 
28 166 
29 30 
29 31 
29 44 
29 46 
29 58 
29 66 
29 73 
29 74 
29 87 
29 88 
29 96 
29 101 
29 108 
29 118 
29 123 
29 129 
29 134 
29 139 
29 144 
29 145 
29 150 
29 153 
29 156 
29 157 
29 158 
29 163 
29 168 
29 170 
29 173 
29 176 
30 31 
30 35 
30 42 
30 49 
30 53 
30 60 
30 70 
30 71 
30 78 
30 85 
30 106 
30 108 
30 117 
30 124 
30 128 
30 132 
30 137 
30 147 
30 148 
30 157 
30 160 
30 162 
30 166 
30 167 
30 170 
30 171 
30 172 
30 174 
30 176 
31 36 
31 45 
31 56 
31 58 
31 65 
31 67 
31 80 
31 81 
31 84 
31 93 
31 98 
31 102 
31 110 
31 116 
31 121 
31 125 
31 126 
31 131 
31 136 
31 149 
31 155 
31 156 
31 157 
31 166 
31 169 
31 172 
31 175 
31 176 
32 33 
32 34 
32 35 
32 36 
32 37 
32 38 
32 39 
32 40 
32 41 
32 42 
32 43 
32 44 
32 45 
32 46 
32 47 
32 48 
32 49 
32 50 
32 51 
32 52 
32 53 
32 54 
32 55 
32 56 
32 57 
32 58 
32 71 
32 82 
32 83 
32 84 
32 85 
32 86 
32 87 
32 88 
32 89 
32 90 
32 91 
32 92 
32 93 
33 34 
33 35 
33 36 
33 37 
33 38 
33 39 
33 40 
33 41 
33 42 
33 43 
33 44 
33 45 
33 46 
33 56 
33 59 
33 60 
33 61 
33 62 
33 63 
33 64 
33 65 
33 66 
33 67 
33 68 
33 69 
33 70 
33 80 
33 92 
33 97 
33 111 
33 112 
33 139 
33 143 
33 152 
33 161 
33 164 
33 167 
33 170 
34 35 
34 36 
34 37 
34 38 
34 39 
34 40 
34 41 
34 42 
34 43 
34 44 
34 45 
34 47 
34 50 
34 59 
34 63 
34 71 
34 72 
34 73 
34 74 
34 75 
34 76 
34 77 
34 78 
34 79 
34 80 
34 81 
34 85 
34 96 
34 105 
34 112 
34 119 
34 120 
34 121 
34 122 
34 123 
34 124 
34 125 
35 36 
35 37 
35 38 
35 39 
35 40 
35 41 
35 42 
35 43 
35 44 
35 45 
35 53 
35 60 
35 70 
35 72 
35 78 
35 82 
35 85 
35 94 
35 95 
35 96 
35 97 
35 98 
35 99 
35 100 
35 101 
35 102 
35 103 
35 108 
35 117 
35 128 
35 132 
35 147 
35 166 
35 167 
35 171 
35 176 
36 37 
36 38 
36 39 
36 40 
36 41 
36 42 
36 43 
36 44 
36 45 
36 48 
36 56 
36 61 
36 65 
36 73 
36 81 
36 83 
36 93 
36 94 
36 102 
36 104 
36 105 
36 106 
36 107 
36 108 
36 109 
36 110 
36 111 
36 116 
36 121 
36 131 
36 136 
36 155 
36 157 
36 169 
36 176 
37 38 
37 39 
37 40 
37 41 
37 42 
37 43 
37 44 
37 45 
37 49 
37 57 
37 62 
37 70 
37 74 
37 81 
37 84 
37 91 
37 95 
37 100 
37 104 
37 111 
37 112 
37 113 
37 114 
37 115 
37 116 
37 117 
37 118 
37 120 
37 130 
37 141 
37 144 
37 154 
37 162 
37 173 
37 175 
38 39 
38 40 
38 41 
38 42 
38 43 
38 44 
38 45 
38 51 
38 55 
38 59 
38 64 
38 76 
38 86 
38 92 
38 97 
38 103 
38 106 
38 113 
38 119 
38 125 
38 126 
38 127 
38 128 
38 129 
38 130 
38 131 
38 147 
38 151 
38 153 
38 165 
38 169 
38 173 
38 174 
39 40 
39 41 
39 42 
39 43 
39 44 
39 45 
39 51 
39 52 
39 64 
39 68 
39 75 
39 77 
39 87 
39 91 
39 98 
39 101 
39 107 
39 109 
39 114 
39 118 
39 120 
39 124 
39 131 
39 132 
39 133 
39 134 
39 135 
39 136 
39 146 
39 164 
39 165 
39 166 
40 41 
40 42 
40 43 
40 44 
40 45 
40 48 
40 52 
40 62 
40 65 
40 76 
40 78 
40 88 
40 99 
40 102 
40 115 
40 119 
40 122 
40 130 
40 132 
40 135 
40 137 
40 138 
40 139 
40 140 
40 141 
40 145 
40 151 
40 156 
40 159 
40 160 
40 161 
41 42 
41 43 
41 44 
41 45 
41 53 
41 54 
41 69 
41 75 
41 77 
41 83 
41 93 
41 100 
41 103 
41 104 
41 116 
41 127 
41 129 
41 134 
41 137 
41 141 
41 142 
41 149 
41 150 
41 151 
41 152 
41 159 
41 164 
41 168 
41 171 
41 172 
42 43 
42 44 
42 45 
42 49 
42 54 
42 60 
42 66 
42 71 
42 89 
42 94 
42 106 
42 114 
42 122 
42 124 
42 128 
42 137 
42 138 
42 143 
42 148 
42 149 
42 153 
42 154 
42 155 
42 157 
42 160 
42 162 
42 170 
42 172 
42 174 
43 44 
43 45 
43 50 
43 55 
43 67 
43 68 
43 72 
43 79 
43 86 
43 90 
43 107 
43 110 
43 117 
43 123 
43 133 
43 138 
43 140 
43 146 
43 150 
43 152 
43 154 
43 159 
43 160 
43 162 
43 163 
43 167 
43 168 
43 169 
44 45 
44 58 
44 63 
44 66 
44 73 
44 79 
44 88 
44 90 
44 96 
44 99 
44 109 
44 113 
44 118 
44 134 
44 135 
44 142 
44 145 
44 155 
44 158 
44 163 
44 168 
44 170 
44 171 
44 173 
44 174 
44 175 
44 176 
45 57 
45 58 
45 67 
45 69 
45 80 
45 84 
45 89 
45 95 
45 98 
45 105 
45 110 
45 125 
45 126 
45 127 
45 136 
45 140 
45 148 
45 149 
45 156 
45 158 
45 161 
45 163 
45 165 
45 166 
45 172 
45 175 
46 47 
46 48 
46 49 
46 50 
46 51 
46 52 
46 53 
46 54 
46 55 
46 56 
46 57 
46 58 
46 59 
46 60 
46 61 
46 62 
46 63 
46 64 
46 65 
46 66 
46 67 
46 68 
46 69 
46 70 
46 74 
46 87 
46 101 
46 108 
46 123 
46 129 
46 139 
46 144 
46 150 
46 153 
46 156 
46 157 
46 158 
47 48 
47 49 
47 50 
47 51 
47 52 
47 53 
47 54 
47 55 
47 56 
47 57 
47 58 
47 59 
47 61 
47 71 
47 72 
47 73 
47 74 
47 75 
47 76 
47 77 
47 78 
47 79 
47 80 
47 81 
47 82 
47 115 
47 121 
47 126 
47 133 
47 142 
47 143 
47 144 
47 145 
47 146 
47 147 
47 148 
48 49 
48 50 
48 51 
48 52 
48 53 
48 54 
48 55 
48 56 
48 57 
48 58 
48 61 
48 62 
48 73 
48 78 
48 83 
48 94 
48 102 
48 104 
48 105 
48 106 
48 107 
48 108 
48 109 
48 110 
48 111 
48 122 
48 130 
48 135 
48 145 
48 151 
48 156 
48 159 
48 160 
48 161 
49 50 
49 51 
49 52 
49 53 
49 54 
49 55 
49 56 
49 57 
49 58 
49 60 
49 62 
49 71 
49 74 
49 84 
49 95 
49 104 
49 106 
49 112 
49 113 
49 114 
49 115 
49 116 
49 117 
49 118 
49 124 
49 137 
49 148 
49 157 
49 160 
49 162 
49 170 
49 172 
49 174 
50 51 
50 52 
50 53 
50 54 
50 55 
50 56 
50 57 
50 58 
50 63 
50 68 
50 79 
50 85 
50 86 
50 96 
50 105 
50 110 
50 112 
50 119 
50 120 
50 121 
50 122 
50 123 
50 124 
50 125 
50 133 
50 140 
50 150 
50 154 
50 160 
50 167 
50 168 
50 169 
51 52 
51 53 
51 54 
51 55 
51 56 
51 57 
51 58 
51 59 
51 64 
51 75 
51 86 
51 87 
51 97 
51 98 
51 106 
51 107 
51 113 
51 114 
51 119 
51 120 
51 126 
51 127 
51 128 
51 129 
51 130 
51 131 
51 132 
51 133 
51 134 
51 135 
51 136 
52 53 
52 54 
52 55 
52 56 
52 57 
52 58 
52 65 
52 68 
52 76 
52 77 
52 88 
52 91 
52 99 
52 101 
52 109 
52 115 
52 118 
52 119 
52 124 
52 131 
52 132 
52 137 
52 138 
52 139 
52 140 
52 141 
52 146 
52 164 
52 165 
52 166 
53 54 
53 55 
53 56 
53 57 
53 58 
53 70 
53 77 
53 78 
53 83 
53 85 
53 100 
53 108 
53 116 
53 117 
53 127 
53 128 
53 132 
53 134 
53 137 
53 142 
53 147 
53 149 
53 150 
53 151 
53 152 
53 166 
53 167 
53 171 
53 176 
54 55 
54 56 
54 57 
54 58 
54 66 
54 69 
54 75 
54 89 
54 93 
54 94 
54 103 
54 104 
54 114 
54 122 
54 128 
54 129 
54 138 
54 141 
54 143 
54 149 
54 153 
54 154 
54 155 
54 159 
54 164 
54 168 
54 171 
54 172 
55 56 
55 57 
55 58 
55 64 
55 67 
55 72 
55 76 
55 90 
55 92 
55 103 
55 107 
55 117 
55 123 
55 125 
55 138 
55 146 
55 147 
55 151 
55 152 
55 153 
55 159 
55 162 
55 163 
55 165 
55 169 
55 173 
55 174 
56 57 
56 58 
56 65 
56 80 
56 81 
56 92 
56 93 
56 97 
56 102 
56 111 
56 112 
56 116 
56 121 
56 131 
56 136 
56 139 
56 143 
56 152 
56 155 
56 157 
56 161 
56 164 
56 167 
56 169 
56 170 
56 176 
57 58 
57 69 
57 70 
57 81 
57 89 
57 91 
57 95 
57 100 
57 105 
57 111 
57 120 
57 127 
57 130 
57 136 
57 140 
57 141 
57 144 
57 148 
57 154 
57 158 
57 161 
57 162 
57 163 
57 165 
57 173 
57 175 
58 66 
58 67 
58 73 
58 80 
58 84 
58 88 
58 96 
58 98 
58 110 
58 118 
58 125 
58 126 
58 134 
58 145 
58 149 
58 156 
58 163 
58 166 
58 168 
58 170 
58 172 
58 173 
58 175 
58 176 
59 60 
59 61 
59 62 
59 63 
59 64 
59 65 
59 66 
59 67 
59 68 
59 69 
59 70 
59 71 
59 72 
59 73 
59 74 
59 75 
59 76 
59 77 
59 78 
59 79 
59 80 
59 81 
59 86 
59 97 
59 106 
59 113 
59 119 
59 126 
59 127 
59 128 
59 129 
59 130 
59 131 
60 61 
60 62 
60 63 
60 64 
60 65 
60 66 
60 67 
60 68 
60 69 
60 70 
60 71 
60 72 
60 82 
60 94 
60 95 
60 96 
60 97 
60 98 
60 99 
60 100 
60 101 
60 102 
60 103 
60 106 
60 124 
60 137 
60 148 
60 157 
60 160 
60 162 
60 170 
60 172 
60 174 
61 62 
61 63 
61 64 
61 65 
61 66 
61 67 
61 68 
61 69 
61 70 
61 73 
61 82 
61 83 
61 94 
61 104 
61 105 
61 106 
61 107 
61 108 
61 109 
61 110 
61 111 
61 115 
61 121 
61 126 
61 133 
61 142 
61 143 
61 144 
61 145 
61 146 
61 147 
61 148 
62 63 
62 64 
62 65 
62 66 
62 67 
62 68 
62 69 
62 70 
62 74 
62 78 
62 84 
62 95 
62 102 
62 104 
62 112 
62 113 
62 114 
62 115 
62 116 
62 117 
62 118 
62 122 
62 130 
62 135 
62 145 
62 151 
62 156 
62 159 
62 160 
62 161 
63 64 
63 65 
63 66 
63 67 
63 68 
63 69 
63 70 
63 79 
63 85 
63 90 
63 96 
63 99 
63 105 
63 109 
63 112 
63 113 
63 119 
63 120 
63 121 
63 122 
63 123 
63 124 
63 125 
63 135 
63 142 
63 155 
63 158 
63 171 
63 174 
63 175 
64 65 
64 66 
64 67 
64 68 
64 69 
64 70 
64 75 
64 76 
64 87 
64 92 
64 98 
64 103 
64 107 
64 114 
64 120 
64 125 
64 132 
64 133 
64 134 
64 135 
64 136 
64 147 
64 151 
64 153 
64 165 
64 169 
64 173 
64 174 
65 66 
65 67 
65 68 
65 69 
65 70 
65 76 
65 81 
65 88 
65 93 
65 99 
65 102 
65 115 
65 116 
65 119 
65 121 
65 131 
65 132 
65 136 
65 137 
65 138 
65 139 
65 140 
65 141 
65 155 
65 157 
65 169 
65 176 
66 67 
66 68 
66 69 
66 70 
66 73 
66 88 
66 89 
66 94 
66 96 
66 114 
66 118 
66 122 
66 128 
66 134 
66 138 
66 143 
66 145 
66 149 
66 153 
66 154 
66 155 
66 163 
66 168 
66 170 
66 173 
66 176 
67 68 
67 69 
67 70 
67 72 
67 80 
67 84 
67 90 
67 98 
67 107 
67 110 
67 117 
67 123 
67 125 
67 126 
67 138 
67 146 
67 149 
67 152 
67 156 
67 159 
67 162 
67 163 
67 166 
67 172 
67 175 
68 69 
68 70 
68 77 
68 79 
68 86 
68 91 
68 101 
68 109 
68 110 
68 118 
68 124 
68 131 
68 133 
68 140 
68 146 
68 150 
68 154 
68 160 
68 164 
68 165 
68 166 
68 167 
68 168 
68 169 
69 70 
69 75 
69 89 
69 93 
69 95 
69 103 
69 104 
69 105 
69 127 
69 129 
69 136 
69 140 
69 141 
69 148 
69 158 
69 159 
69 161 
69 163 
69 164 
69 165 
69 168 
69 171 
69 172 
70 78 
70 81 
70 85 
70 91 
70 100 
70 108 
70 111 
70 117 
70 120 
70 128 
70 130 
70 132 
70 141 
70 144 
70 147 
70 154 
70 162 
70 166 
70 167 
70 171 
70 173 
70 175 
70 176 
71 72 
71 73 
71 74 
71 75 
71 76 
71 77 
71 78 
71 79 
71 80 
71 81 
71 82 
71 83 
71 84 
71 85 
71 86 
71 87 
71 88 
71 89 
71 90 
71 91 
71 92 
71 93 
71 106 
71 124 
71 137 
71 148 
71 157 
71 160 
71 162 
71 170 
71 172 
71 174 
72 73 
72 74 
72 75 
72 76 
72 77 
72 78 
72 79 
72 80 
72 81 
72 82 
72 90 
72 94 
72 95 
72 96 
72 97 
72 98 
72 99 
72 100 
72 101 
72 102 
72 103 
72 107 
72 117 
72 123 
72 138 
72 146 
72 152 
72 159 
72 162 
72 163 
73 74 
73 75 
73 76 
73 77 
73 78 
73 79 
73 80 
73 81 
73 83 
73 88 
73 94 
73 96 
73 104 
73 105 
73 106 
73 107 
73 108 
73 109 
73 110 
73 111 
73 118 
73 134 
73 145 
73 163 
73 168 
73 170 
73 173 
73 176 
74 75 
74 76 
74 77 
74 78 
74 79 
74 80 
74 81 
74 84 
74 87 
74 95 
74 101 
74 104 
74 108 
74 112 
74 113 
74 114 
74 115 
74 116 
74 117 
74 118 
74 123 
74 129 
74 139 
74 144 
74 150 
74 153 
74 156 
74 157 
74 158 
75 76 
75 77 
75 78 
75 79 
75 80 
75 81 
75 87 
75 93 
75 98 
75 103 
75 104 
75 107 
75 114 
75 120 
75 129 
75 132 
75 133 
75 134 
75 135 
75 136 
75 141 
75 159 
75 164 
75 168 
75 171 
75 172 
76 77 
76 78 
76 79 
76 80 
76 81 
76 88 
76 92 
76 99 
76 103 
76 115 
76 119 
76 125 
76 132 
76 137 
76 138 
76 139 
76 140 
76 141 
76 147 
76 151 
76 153 
76 165 
76 169 
76 173 
76 174 
77 78 
77 79 
77 80 
77 81 
77 83 
77 91 
77 100 
77 101 
77 109 
77 116 
77 118 
77 124 
77 127 
77 131 
77 134 
77 137 
77 142 
77 146 
77 149 
77 150 
77 151 
77 152 
77 164 
77 165 
77 166 
78 79 
78 80 
78 81 
78 85 
78 102 
78 108 
78 117 
78 122 
78 128 
78 130 
78 132 
78 135 
78 145 
78 147 
78 151 
78 156 
78 159 
78 160 
78 161 
78 166 
78 167 
78 171 
78 176 
79 80 
79 81 
79 86 
79 90 
79 99 
79 109 
79 110 
79 113 
79 133 
79 135 
79 140 
79 142 
79 150 
79 154 
79 155 
79 158 
79 160 
79 167 
79 168 
79 169 
79 171 
79 174 
79 175 
80 81 
80 84 
80 92 
80 97 
80 98 
80 110 
80 111 
80 112 
80 125 
80 126 
80 139 
80 143 
80 149 
80 152 
80 156 
80 161 
80 164 
80 166 
80 167 
80 170 
80 172 
80 175 
81 91 
81 93 
81 100 
81 102 
81 111 
81 116 
81 120 
81 121 
81 130 
81 131 
81 136 
81 141 
81 144 
81 154 
81 155 
81 157 
81 162 
81 169 
81 173 
81 175 
81 176 
82 83 
82 84 
82 85 
82 86 
82 87 
82 88 
82 89 
82 90 
82 91 
82 92 
82 93 
82 94 
82 95 
82 96 
82 97 
82 98 
82 99 
82 100 
82 101 
82 102 
82 103 
82 115 
82 121 
82 126 
82 133 
82 142 
82 143 
82 144 
82 145 
82 146 
82 147 
82 148 
83 84 
83 85 
83 86 
83 87 
83 88 
83 89 
83 90 
83 91 
83 92 
83 93 
83 94 
83 100 
83 104 
83 105 
83 106 
83 107 
83 108 
83 109 
83 110 
83 111 
83 116 
83 127 
83 134 
83 137 
83 142 
83 149 
83 150 
83 151 
83 152 
84 85 
84 86 
84 87 
84 88 
84 89 
84 90 
84 91 
84 92 
84 93 
84 95 
84 98 
84 104 
84 110 
84 112 
84 113 
84 114 
84 115 
84 116 
84 117 
84 118 
84 125 
84 126 
84 149 
84 156 
84 166 
84 172 
84 175 
85 86 
85 87 
85 88 
85 89 
85 90 
85 91 
85 92 
85 93 
85 96 
85 105 
85 108 
85 112 
85 117 
85 119 
85 120 
85 121 
85 122 
85 123 
85 124 
85 125 
85 128 
85 132 
85 147 
85 166 
85 167 
85 171 
85 176 
86 87 
86 88 
86 89 
86 90 
86 91 
86 92 
86 93 
86 97 
86 106 
86 110 
86 113 
86 119 
86 126 
86 127 
86 128 
86 129 
86 130 
86 131 
86 133 
86 140 
86 150 
86 154 
86 160 
86 167 
86 168 
86 169 
87 88 
87 89 
87 90 
87 91 
87 92 
87 93 
87 98 
87 101 
87 107 
87 108 
87 114 
87 120 
87 123 
87 129 
87 132 
87 133 
87 134 
87 135 
87 136 
87 139 
87 144 
87 150 
87 153 
87 156 
87 157 
87 158 
88 89 
88 90 
88 91 
88 92 
88 93 
88 96 
88 99 
88 115 
88 118 
88 119 
88 132 
88 134 
88 137 
88 138 
88 139 
88 140 
88 141 
88 145 
88 163 
88 168 
88 170 
88 173 
88 176 
89 90 
89 91 
89 92 
89 93 
89 94 
89 95 
89 105 
89 114 
89 122 
89 127 
89 128 
89 136 
89 138 
89 140 
89 143 
89 148 
89 149 
89 153 
89 154 
89 155 
89 158 
89 161 
89 163 
89 165 
90 91 
90 92 
90 93 
90 99 
90 107 
90 109 
90 113 
90 117 
90 123 
90 135 
90 138 
90 142 
90 146 
90 152 
90 155 
90 158 
90 159 
90 162 
90 163 
90 171 
90 174 
90 175 
91 92 
91 93 
91 100 
91 101 
91 109 
91 111 
91 118 
91 120 
91 124 
91 130 
91 131 
91 141 
91 144 
91 146 
91 154 
91 162 
91 164 
91 165 
91 166 
91 173 
91 175 
92 93 
92 97 
92 103 
92 111 
92 112 
92 125 
92 139 
92 143 
92 147 
92 151 
92 152 
92 153 
92 161 
92 164 
92 165 
92 167 
92 169 
92 170 
92 173 
92 174 
93 102 
93 103 
93 104 
93 116 
93 121 
93 129 
93 131 
93 136 
93 141 
93 155 
93 157 
93 159 
93 164 
93 168 
93 169 
93 171 
93 172 
93 176 
94 95 
94 96 
94 97 
94 98 
94 99 
94 100 
94 101 
94 102 
94 103 
94 104 
94 105 
94 106 
94 107 
94 108 
94 109 
94 110 
94 111 
94 114 
94 122 
94 128 
94 138 
94 143 
94 149 
94 153 
94 154 
94 155 
95 96 
95 97 
95 98 
95 99 
95 100 
95 101 
95 102 
95 103 
95 104 
95 105 
95 112 
95 113 
95 114 
95 115 
95 116 
95 117 
95 118 
95 127 
95 136 
95 140 
95 148 
95 158 
95 161 
95 163 
95 165 
96 97 
96 98 
96 99 
96 100 
96 101 
96 102 
96 103 
96 105 
96 112 
96 118 
96 119 
96 120 
96 121 
96 122 
96 123 
96 124 
96 125 
96 134 
96 145 
96 163 
96 168 
96 170 
96 173 
96 176 
97 98 
97 99 
97 100 
97 101 
97 102 
97 103 
97 106 
97 111 
97 112 
97 113 
97 119 
97 126 
97 127 
97 128 
97 129 
97 130 
97 131 
97 139 
97 143 
97 152 
97 161 
97 164 
97 167 
97 170 
98 99 
98 100 
98 101 
98 102 
98 103 
98 107 
98 110 
98 114 
98 120 
98 125 
98 126 
98 132 
98 133 
98 134 
98 135 
98 136 
98 149 
98 156 
98 166 
98 172 
98 175 
99 100 
99 101 
99 102 
99 103 
99 109 
99 113 
99 115 
99 119 
99 132 
99 135 
99 137 
99 138 
99 139 
99 140 
99 141 
99 142 
99 155 
99 158 
99 171 
99 174 
99 175 
100 101 
100 102 
100 103 
100 111 
100 116 
100 120 
100 127 
100 130 
100 134 
100 137 
100 141 
100 142 
100 144 
100 149 
100 150 
100 151 
100 152 
100 154 
100 162 
100 173 
100 175 
101 102 
101 103 
101 108 
101 109 
101 118 
101 123 
101 124 
101 129 
101 131 
101 139 
101 144 
101 146 
101 150 
101 153 
101 156 
101 157 
101 158 
101 164 
101 165 
101 166 
102 103 
102 116 
102 121 
102 122 
102 130 
102 131 
102 135 
102 136 
102 145 
102 151 
102 155 
102 156 
102 157 
102 159 
102 160 
102 161 
102 169 
102 176 
103 104 
103 125 
103 129 
103 141 
103 147 
103 151 
103 153 
103 159 
103 164 
103 165 
103 168 
103 169 
103 171 
103 172 
103 173 
103 174 
104 105 
104 106 
104 107 
104 108 
104 109 
104 110 
104 111 
104 112 
104 113 
104 114 
104 115 
104 116 
104 117 
104 118 
104 129 
104 141 
104 159 
104 164 
104 168 
104 171 
104 172 
105 106 
105 107 
105 108 
105 109 
105 110 
105 111 
105 112 
105 119 
105 120 
105 121 
105 122 
105 123 
105 124 
105 125 
105 127 
105 136 
105 140 
105 148 
105 158 
105 161 
105 163 
105 165 
106 107 
106 108 
106 109 
106 110 
106 111 
106 113 
106 119 
106 124 
106 126 
106 127 
106 128 
106 129 
106 130 
106 131 
106 137 
106 148 
106 157 
106 160 
106 162 
106 170 
106 172 
106 174 
107 108 
107 109 
107 110 
107 111 
107 114 
107 117 
107 120 
107 123 
107 132 
107 133 
107 134 
107 135 
107 136 
107 138 
107 146 
107 152 
107 159 
107 162 
107 163 
108 109 
108 110 
108 111 
108 117 
108 123 
108 128 
108 129 
108 132 
108 139 
108 144 
108 147 
108 150 
108 153 
108 156 
108 157 
108 158 
108 166 
108 167 
108 171 
108 176 
109 110 
109 111 
109 113 
109 118 
109 124 
109 131 
109 135 
109 142 
109 146 
109 155 
109 158 
109 164 
109 165 
109 166 
109 171 
109 174 
109 175 
110 111 
110 125 
110 126 
110 133 
110 140 
110 149 
110 150 
110 154 
110 156 
110 160 
110 166 
110 167 
110 168 
110 169 
110 172 
110 175 
111 112 
111 120 
111 130 
111 139 
111 141 
111 143 
111 144 
111 152 
111 154 
111 161 
111 162 
111 164 
111 167 
111 170 
111 173 
111 175 
112 113 
112 114 
112 115 
112 116 
112 117 
112 118 
112 119 
112 120 
112 121 
112 122 
112 123 
112 124 
112 125 
112 139 
112 143 
112 152 
112 161 
112 164 
112 167 
112 170 
113 114 
113 115 
113 116 
113 117 
113 118 
113 119 
113 126 
113 127 
113 128 
113 129 
113 130 
113 131 
113 135 
113 142 
113 155 
113 158 
113 171 
113 174 
113 175 
114 115 
114 116 
114 117 
114 118 
114 120 
114 122 
114 128 
114 132 
114 133 
114 134 
114 135 
114 136 
114 138 
114 143 
114 149 
114 153 
114 154 
114 155 
115 116 
115 117 
115 118 
115 119 
115 121 
115 126 
115 132 
115 133 
115 137 
115 138 
115 139 
115 140 
115 141 
115 142 
115 143 
115 144 
115 145 
115 146 
115 147 
115 148 
116 117 
116 118 
116 121 
116 127 
116 131 
116 134 
116 136 
116 137 
116 142 
116 149 
116 150 
116 151 
116 152 
116 155 
116 157 
116 169 
116 176 
117 118 
117 123 
117 128 
117 132 
117 138 
117 146 
117 147 
117 152 
117 159 
117 162 
117 163 
117 166 
117 167 
117 171 
117 176 
118 124 
118 131 
118 134 
118 145 
118 146 
118 163 
118 164 
118 165 
118 166 
118 168 
118 170 
118 173 
118 176 
119 120 
119 121 
119 122 
119 123 
119 124 
119 125 
119 126 
119 127 
119 128 
119 129 
119 130 
119 131 
119 132 
119 137 
119 138 
119 139 
119 140 
119 141 
120 121 
120 122 
120 123 
120 124 
120 125 
120 130 
120 132 
120 133 
120 134 
120 135 
120 136 
120 141 
120 144 
120 154 
120 162 
120 173 
120 175 
121 122 
121 123 
121 124 
121 125 
121 126 
121 131 
121 133 
121 136 
121 142 
121 143 
121 144 
121 145 
121 146 
121 147 
121 148 
121 155 
121 157 
121 169 
121 176 
122 123 
122 124 
122 125 
122 128 
122 130 
122 135 
122 138 
122 143 
122 145 
122 149 
122 151 
122 153 
122 154 
122 155 
122 156 
122 159 
122 160 
122 161 
123 124 
123 125 
123 129 
123 138 
123 139 
123 144 
123 146 
123 150 
123 152 
123 153 
123 156 
123 157 
123 158 
123 159 
123 162 
123 163 
124 125 
124 131 
124 137 
124 146 
124 148 
124 157 
124 160 
124 162 
124 164 
124 165 
124 166 
124 170 
124 172 
124 174 
125 126 
125 147 
125 149 
125 151 
125 153 
125 156 
125 165 
125 166 
125 169 
125 172 
125 173 
125 174 
125 175 
126 127 
126 128 
126 129 
126 130 
126 131 
126 133 
126 142 
126 143 
126 144 
126 145 
126 146 
126 147 
126 148 
126 149 
126 156 
126 166 
126 172 
126 175 
127 128 
127 129 
127 130 
127 131 
127 134 
127 136 
127 137 
127 140 
127 142 
127 148 
127 149 
127 150 
127 151 
127 152 
127 158 
127 161 
127 163 
127 165 
128 129 
128 130 
128 131 
128 132 
128 138 
128 143 
128 147 
128 149 
128 153 
128 154 
128 155 
128 166 
128 167 
128 171 
128 176 
129 130 
129 131 
129 139 
129 141 
129 144 
129 150 
129 153 
129 156 
129 157 
129 158 
129 159 
129 164 
129 168 
129 171 
129 172 
130 131 
130 135 
130 141 
130 144 
130 145 
130 151 
130 154 
130 156 
130 159 
130 160 
130 161 
130 162 
130 173 
130 175 
131 136 
131 146 
131 155 
131 157 
131 164 
131 165 
131 166 
131 169 
131 176 
132 133 
132 134 
132 135 
132 136 
132 137 
132 138 
132 139 
132 140 
132 141 
132 147 
132 166 
132 167 
132 171 
132 176 
133 134 
133 135 
133 136 
133 140 
133 142 
133 143 
133 144 
133 145 
133 146 
133 147 
133 148 
133 150 
133 154 
133 160 
133 167 
133 168 
133 169 
134 135 
134 136 
134 137 
134 142 
134 145 
134 149 
134 150 
134 151 
134 152 
134 163 
134 168 
134 170 
134 173 
134 176 
135 136 
135 142 
135 145 
135 151 
135 155 
135 156 
135 158 
135 159 
135 160 
135 161 
135 171 
135 174 
135 175 
136 140 
136 148 
136 155 
136 157 
136 158 
136 161 
136 163 
136 165 
136 169 
136 176 
137 138 
137 139 
137 140 
137 141 
137 142 
137 148 
137 149 
137 150 
137 151 
137 152 
137 157 
137 160 
137 162 
137 170 
137 172 
137 174 
138 139 
138 140 
138 141 
138 143 
138 146 
138 149 
138 152 
138 153 
138 154 
138 155 
138 159 
138 162 
138 163 
139 140 
139 141 
139 143 
139 144 
139 150 
139 152 
139 153 
139 156 
139 157 
139 158 
139 161 
139 164 
139 167 
139 170 
140 141 
140 148 
140 150 
140 154 
140 158 
140 160 
140 161 
140 163 
140 165 
140 167 
140 168 
140 169 
141 144 
141 154 
141 159 
141 162 
141 164 
141 168 
141 171 
141 172 
141 173 
141 175 
142 143 
142 144 
142 145 
142 146 
142 147 
142 148 
142 149 
142 150 
142 151 
142 152 
142 155 
142 158 
142 171 
142 174 
142 175 
143 144 
143 145 
143 146 
143 147 
143 148 
143 149 
143 152 
143 153 
143 154 
143 155 
143 161 
143 164 
143 167 
143 170 
144 145 
144 146 
144 147 
144 148 
144 150 
144 153 
144 154 
144 156 
144 157 
144 158 
144 162 
144 173 
144 175 
145 146 
145 147 
145 148 
145 151 
145 156 
145 159 
145 160 
145 161 
145 163 
145 168 
145 170 
145 173 
145 176 
146 147 
146 148 
146 152 
146 159 
146 162 
146 163 
146 164 
146 165 
146 166 
147 148 
147 151 
147 153 
147 165 
147 166 
147 167 
147 169 
147 171 
147 173 
147 174 
147 176 
148 157 
148 158 
148 160 
148 161 
148 162 
148 163 
148 165 
148 170 
148 172 
148 174 
149 150 
149 151 
149 152 
149 153 
149 154 
149 155 
149 156 
149 166 
149 172 
149 175 
150 151 
150 152 
150 153 
150 154 
150 156 
150 157 
150 158 
150 160 
150 167 
150 168 
150 169 
151 152 
151 153 
151 156 
151 159 
151 160 
151 161 
151 165 
151 169 
151 173 
151 174 
152 159 
152 161 
152 162 
152 163 
152 164 
152 167 
152 170 
153 154 
153 155 
153 156 
153 157 
153 158 
153 165 
153 169 
153 173 
153 174 
154 155 
154 160 
154 162 
154 167 
154 168 
154 169 
154 173 
154 175 
155 157 
155 158 
155 169 
155 171 
155 174 
155 175 
155 176 
156 157 
156 158 
156 159 
156 160 
156 161 
156 166 
156 172 
156 175 
157 158 
157 160 
157 162 
157 169 
157 170 
157 172 
157 174 
157 176 
158 161 
158 163 
158 165 
158 171 
158 174 
158 175 
159 160 
159 161 
159 162 
159 163 
159 164 
159 168 
159 171 
159 172 
160 161 
160 162 
160 167 
160 168 
160 169 
160 170 
160 172 
160 174 
161 163 
161 164 
161 165 
161 167 
161 170 
162 163 
162 170 
162 172 
162 173 
162 174 
162 175 
163 165 
163 168 
163 170 
163 173 
163 176 
164 165 
164 166 
164 167 
164 168 
164 170 
164 171 
164 172 
165 166 
165 169 
165 173 
165 174 
166 167 
166 171 
166 172 
166 175 
166 176 
167 168 
167 169 
167 170 
167 171 
167 176 
168 169 
168 170 
168 171 
168 172 
168 173 
168 176 
169 173 
169 174 
169 176 
170 172 
170 173 
170 174 
170 176 
171 172 
171 174 
171 175 
171 176 
172 174 
172 175 
173 174 
173 175 
173 176 
174 175 
